% ----DATA VARIABLES----

t=15;%number of attributes
k=3;%max length of the support set
n=40;%number of positive instances
m=40;%number of negative instances
c=3;%number of atMostOne Constraints

% ----OMEGAS----

omegap= [| 1, 0, 0, 0, 0, 0, 0, 1, 0, 0, 0, 0, 1, 0, 1|
 1, 0, 1, 0, 0, 0, 0, 0, 1, 1, 0, 1, 1, 1, 0|
 1, 1, 1, 1, 0, 1, 0, 0, 0, 0, 1, 0, 0, 0, 0|
 0, 0, 1, 1, 0, 1, 0, 0, 0, 1, 0, 1, 1, 0, 0|
 1, 0, 0, 0, 1, 1, 1, 1, 1, 1, 1, 0, 0, 0, 0|
 1, 0, 1, 0, 0, 1, 1, 1, 0, 0, 0, 1, 1, 1, 0|
 1, 0, 1, 0, 0, 1, 1, 1, 1, 1, 1, 0, 1, 0, 1|
 1, 0, 0, 0, 0, 1, 0, 0, 1, 1, 0, 0, 1, 1, 0|
 0, 0, 0, 1, 0, 0, 1, 1, 0, 0, 0, 0, 1, 0, 1|
 0, 0, 1, 1, 0, 1, 1, 0, 0, 1, 0, 1, 0, 1, 0|
 0, 0, 0, 0, 1, 1, 1, 0, 1, 1, 1, 0, 1, 1, 0|
 1, 1, 1, 1, 0, 1, 0, 1, 1, 1, 0, 0, 0, 1, 1|
 1, 1, 1, 0, 0, 0, 0, 0, 0, 1, 1, 1, 0, 0, 1|
 1, 0, 0, 1, 1, 1, 0, 1, 0, 0, 0, 0, 1, 0, 0|
 0, 1, 0, 1, 1, 0, 0, 1, 0, 1, 1, 1, 1, 1, 0|
 1, 1, 0, 1, 0, 0, 1, 0, 0, 0, 1, 0, 0, 0, 1|
 0, 0, 0, 0, 1, 0, 1, 1, 0, 0, 1, 0, 0, 1, 1|
 0, 1, 1, 0, 0, 0, 0, 0, 1, 0, 0, 1, 1, 0, 0|
 1, 0, 0, 1, 1, 0, 1, 1, 0, 0, 0, 1, 1, 1, 1|
 0, 1, 1, 0, 0, 0, 0, 0, 1, 1, 0, 0, 0, 0, 1|
 1, 1, 1, 1, 0, 0, 1, 1, 1, 0, 1, 1, 0, 0, 1|
 1, 1, 1, 1, 0, 1, 1, 0, 1, 1, 0, 1, 0, 0, 1|
 1, 0, 1, 1, 0, 1, 0, 0, 0, 0, 0, 0, 1, 1, 1|
 1, 0, 1, 1, 0, 0, 1, 0, 1, 1, 0, 0, 1, 1, 0|
 0, 1, 0, 0, 0, 0, 1, 0, 0, 0, 0, 0, 1, 1, 1|
 1, 1, 0, 0, 1, 1, 1, 0, 1, 0, 1, 0, 0, 0, 0|
 0, 1, 0, 1, 1, 1, 1, 1, 1, 0, 1, 1, 1, 1, 0|
 1, 1, 0, 0, 0, 0, 1, 0, 1, 0, 0, 1, 1, 1, 0|
 0, 0, 0, 1, 0, 0, 1, 1, 0, 1, 1, 0, 1, 0, 1|
 0, 0, 1, 0, 1, 0, 1, 0, 0, 1, 0, 1, 0, 1, 1|
 0, 0, 1, 0, 0, 1, 0, 0, 0, 0, 1, 1, 0, 0, 1|
 0, 1, 1, 1, 0, 1, 0, 1, 1, 1, 0, 0, 0, 0, 1|
 0, 0, 0, 0, 0, 0, 1, 1, 1, 0, 0, 1, 1, 1, 1|
 1, 0, 1, 1, 0, 0, 1, 1, 0, 0, 1, 1, 0, 1, 0|
 1, 0, 0, 1, 1, 1, 0, 0, 0, 1, 1, 1, 1, 0, 0|
 0, 0, 0, 0, 0, 1, 1, 1, 0, 1, 0, 0, 0, 0, 0|
 0, 1, 0, 1, 1, 1, 1, 1, 0, 0, 0, 1, 1, 1, 1|
 0, 1, 1, 0, 1, 1, 0, 1, 0, 1, 0, 0, 0, 0, 1|
 0, 0, 1, 1, 0, 1, 1, 0, 1, 0, 0, 0, 1, 0, 1|
 0, 0, 0, 1, 1, 0, 1, 1, 1, 0, 1, 0, 0, 0, 0|];

omegan= [| 1, 0, 0, 0, 1, 1, 0, 1, 0, 0, 1, 1, 1, 1, 0|
 0, 1, 0, 1, 1, 0, 1, 1, 1, 0, 0, 0, 1, 1, 1|
 0, 1, 1, 0, 0, 0, 0, 1, 1, 0, 0, 1, 0, 0, 0|
 0, 1, 0, 0, 1, 0, 1, 1, 0, 0, 1, 1, 0, 0, 0|
 0, 1, 1, 0, 0, 0, 1, 1, 1, 1, 1, 1, 1, 0, 1|
 0, 1, 1, 0, 0, 0, 1, 0, 1, 1, 0, 1, 1, 0, 1|
 1, 1, 1, 1, 0, 1, 0, 0, 1, 0, 1, 1, 1, 0, 0|
 1, 1, 1, 1, 0, 1, 1, 1, 1, 0, 1, 1, 0, 1, 1|
 1, 1, 0, 0, 0, 1, 0, 0, 0, 1, 1, 1, 1, 1, 0|
 0, 1, 1, 0, 1, 1, 1, 1, 1, 1, 1, 0, 1, 1, 0|
 1, 0, 0, 0, 0, 1, 0, 0, 1, 0, 0, 1, 0, 0, 0|
 1, 0, 1, 0, 0, 1, 0, 0, 0, 1, 0, 1, 0, 1, 0|
 1, 1, 0, 1, 0, 0, 0, 1, 1, 0, 1, 0, 0, 0, 0|
 1, 0, 0, 1, 0, 1, 0, 1, 0, 1, 1, 0, 1, 0, 0|
 1, 1, 0, 1, 0, 0, 0, 0, 1, 1, 0, 0, 0, 1, 0|
 0, 0, 1, 0, 0, 1, 1, 0, 1, 0, 0, 1, 1, 1, 0|
 1, 0, 0, 0, 1, 1, 1, 1, 0, 1, 0, 0, 1, 1, 0|
 0, 0, 1, 0, 1, 0, 1, 0, 1, 1, 1, 1, 1, 1, 0|
 0, 1, 1, 1, 1, 0, 1, 0, 0, 1, 1, 1, 1, 1, 0|
 1, 1, 1, 1, 1, 0, 0, 1, 1, 0, 0, 0, 0, 0, 0|
 0, 0, 0, 1, 0, 1, 0, 0, 1, 1, 1, 1, 0, 1, 1|
 1, 1, 1, 0, 0, 1, 1, 1, 1, 1, 1, 0, 1, 1, 0|
 0, 1, 0, 0, 1, 0, 0, 0, 0, 0, 0, 0, 1, 0, 0|
 1, 0, 1, 0, 0, 0, 1, 1, 1, 0, 0, 1, 0, 1, 1|
 1, 0, 1, 1, 1, 0, 1, 0, 1, 1, 1, 1, 0, 0, 1|
 0, 0, 1, 0, 1, 1, 1, 0, 1, 1, 0, 0, 0, 0, 0|
 1, 1, 1, 1, 0, 0, 0, 1, 1, 1, 0, 0, 1, 1, 1|
 0, 1, 0, 0, 1, 1, 1, 0, 1, 1, 0, 0, 0, 0, 0|
 0, 0, 0, 0, 0, 1, 0, 1, 0, 0, 0, 0, 1, 0, 1|
 0, 1, 1, 0, 1, 1, 1, 1, 0, 0, 1, 1, 1, 0, 0|
 1, 1, 1, 0, 0, 1, 1, 0, 1, 1, 0, 1, 1, 1, 1|
 1, 1, 1, 1, 0, 0, 0, 1, 1, 1, 1, 1, 0, 1, 1|
 0, 1, 1, 0, 0, 0, 1, 1, 1, 1, 0, 0, 0, 1, 0|
 0, 1, 0, 1, 0, 1, 0, 0, 0, 1, 0, 1, 0, 1, 0|
 1, 0, 0, 1, 0, 0, 0, 1, 1, 0, 0, 1, 1, 1, 1|
 0, 1, 1, 1, 0, 1, 0, 1, 0, 1, 0, 0, 1, 1, 0|
 0, 1, 0, 0, 1, 0, 1, 0, 0, 0, 1, 0, 0, 1, 0|
 0, 0, 1, 1, 1, 1, 1, 0, 0, 0, 0, 1, 0, 0, 0|
 1, 0, 0, 1, 0, 1, 0, 1, 0, 1, 0, 0, 1, 1, 1|
 1, 0, 0, 0, 1, 0, 1, 1, 1, 1, 1, 1, 0, 1, 1|];

% ----CONSTRAINS----

atMostOne=[{9}, {11, 9, 1, 12}, {1, 9}];